
******************************************************************************
This program contains Ipopt, a library for large-scale nonlinear optimization.
 Ipopt is released as open source code under the Eclipse Public License (EPL).
         For more information visit http://projects.coin-or.org/Ipopt
******************************************************************************

This is Ipopt version 3.12.6, running with linear solver ma57.

Number of nonzeros in equality constraint Jacobian...:    39810
Number of nonzeros in inequality constraint Jacobian.:        0
Number of nonzeros in Lagrangian Hessian.............:       55

Total number of variables............................:      200
                     variables with only lower bounds:        0
                variables with lower and upper bounds:        0
                     variables with only upper bounds:        0
Total number of equality constraints.................:      200
Total number of inequality constraints...............:        0
        inequality constraints with only lower bounds:        0
   inequality constraints with lower and upper bounds:        0
        inequality constraints with only upper bounds:        0

iter    objective    inf_pr   inf_du lg(mu)  ||d||  lg(rg) alpha_du alpha_pr  ls
   0  0.0000000e+00 1.00e+02 0.00e+00  -1.0 0.00e+00    -  0.00e+00 0.00e+00   0
   1  0.0000000e+00 9.89e+01 0.00e+00  -1.0 1.01e+04    -  1.00e+00 1.56e-02h  7
   2  0.0000000e+00 4.18e+00 0.00e+00  -1.0 1.23e+02    -  1.00e+00 1.00e+00h  1
   3  0.0000000e+00 1.23e+00 0.00e+00  -1.0 1.90e+01    -  1.00e+00 1.00e+00h  1
   4  0.0000000e+00 2.65e-01 0.00e+00  -1.0 1.20e+01    -  1.00e+00 1.00e+00h  1
   5  0.0000000e+00 2.37e-02 0.00e+00  -1.7 4.29e+00    -  1.00e+00 1.00e+00h  1
   6  0.0000000e+00 2.45e-04 0.00e+00  -3.8 4.64e-01    -  1.00e+00 1.00e+00h  1
   7  0.0000000e+00 2.71e-08 0.00e+00  -5.7 4.91e-03    -  1.00e+00 1.00e+00h  1
   8  0.0000000e+00 2.90e-13 0.00e+00  -8.6 5.41e-07    -  1.00e+00 1.00e+00h  1

Number of Iterations....: 8

                                   (scaled)                 (unscaled)
Objective...............:   0.0000000000000000e+00    0.0000000000000000e+00
Dual infeasibility......:   0.0000000000000000e+00    0.0000000000000000e+00
Constraint violation....:   2.9021229863701592e-13    2.9021229863701592e-13
Complementarity.........:   0.0000000000000000e+00    0.0000000000000000e+00
Overall NLP error.......:   2.9021229863701592e-13    2.9021229863701592e-13


Number of objective function evaluations             = 11
Number of objective gradient evaluations             = 9
Number of equality constraint evaluations            = 16
Number of inequality constraint evaluations          = 0
Number of equality constraint Jacobian evaluations   = 9
Number of inequality constraint Jacobian evaluations = 0
Number of Lagrangian Hessian evaluations             = 8
Total CPU secs in IPOPT (w/o function evaluations)   =      0.063
Total CPU secs in NLP function evaluations           =      0.020

EXIT: Optimal Solution Found.

************************ CUTEst statistics ************************


 Package used            :  IPOPT
 Problem                 :  BROWNALE  
 # variables             =             200
 # constraints           =             200
 # objective functions   =        0.2100000E+02
 # objective gradients   =        0.1000000E+02
 # objective Hessians    =        0.9000000E+01
 # Hessian-vector prdct  =        0.0000000E+00
 # constraints functions =        0.2700000E+02
 # constraints gradients =        0.1100000E+02
 # constraints Hessians  =        0.9000000E+01
 Exit code               =               0
 Final f                 =   0.0000000E+00
 Set up time             =            0.06 seconds
 Solve time              =            0.27 seconds


******************************************************************

System Time =       0.0670000017 s.
